57 52 9 90 53 95 80 63 14 5 39 92 12 70 13 77 28 74 79 11 58 24 21 97 25 18 7 98 72 60 49 2 54 94 37 42 68 34 87 16 71 26 32 43 84 99 44 27 31 46 61 10 38 6 66 41 15 64 85 30 67 86 33 8 76 51 78 81 48 20 1 19 59 50 40 36 93 17 29 65 69 3 96 22 35 23 4 88 47 45 82 73 89 62 83 91 0 55 75 56 

